c 86_3_checker_5cl.cnf
c
c field = 86
c formula set type = 3_checker_5cl
c
p cnf 5 6
172 
174 
176 
-179 
-168 
173 
175 
177 
-178 
-169 
202 
234 
266 
-299 
-138 
203 
235 
267 
-298 
-139 
86 
114 
142 
-59 
-198 
87 
115 
143 
-58 
-199 
